Gurobi Optimizer version 12.0.1 build v12.0.1rc0 (linux64 - "Ubuntu 24.04.2 LTS")

CPU model: Intel(R) Core(TM) i7-8665U CPU @ 1.90GHz, instruction set [SSE2|AVX|AVX2]
Thread count: 4 physical cores, 8 logical processors, using up to 8 threads

Non-default parameters:
TimeLimit  1800
Method  3

Optimize a model with 717 rows, 714 columns and 1765 nonzeros
Model fingerprint: 0xe4d88118
Variable types: 0 continuous, 714 integer (145 binary)
Coefficient statistics:
  Matrix range     [1e+00, 1e+06]
  Objective range  [8e-01, 9e-01]
  Bounds range     [1e+00, 1e+01]
  RHS range        [1e+00, 2e+04]
Found heuristic solution: objective -0.0000000
Found heuristic solution: objective 12.6000000
Presolve removed 688 rows and 656 columns
Presolve time: 0.00s
Presolved: 29 rows, 58 columns, 86 nonzeros
Found heuristic solution: objective 48.6000000
Variable types: 0 continuous, 58 integer (1 binary)
Found heuristic solution: objective 164.7000000

Explored 0 nodes (0 simplex iterations) in 0.00 seconds (0.00 work units)
Thread count was 8 (of 8 available processors)

Solution count 4: 164.7 48.6 12.6 -0 

Optimal solution found (tolerance 1.00e-04)
Best objective 1.647000000000e+02, best bound 1.647000000000e+02, gap 0.0000%
